c turning on binary mode checking
c parsing input formula with 202048 variables and 780985 clauses
c finished parsing, read 2323768 bytes from proof file
c detected empty clause; start verification via backward checking
c 3028 of 780985 clauses in core                            
c 1022 of 88574 lemmas in core using 19591 resolution steps
c 0 RAT lemmas in core; 69 redundant literals in core lemmas
s VERIFIED
c verification time: 0.942 seconds
